solution/p_5_5.txt_600.col.log
CPXPARAM_TimeLimit                               600
CPXPARAM_WorkMem                                 4096
CPXPARAM_Threads                                 1
Found incumbent of value 0,000000 after 0,00 sec. (0,00 ticks)
Tried aggregator 1 time.
MIP Presolve eliminated 11 rows and 61 columns.
MIP Presolve modified 2 coefficients.
Reduced MIP has 19 rows, 39 columns, and 67 nonzeros.
Reduced MIP has 39 binaries, 0 generals, 0 SOSs, and 0 indicators.
Presolve time = 0,00 sec. (0,15 ticks)
Probing time = 0,00 sec. (0,01 ticks)
Tried aggregator 2 times.
MIP Presolve eliminated 14 rows and 30 columns.
MIP Presolve modified 5 coefficients.
Aggregator did 1 substitutions.
Reduced MIP has 4 rows, 8 columns, and 14 nonzeros.
Reduced MIP has 8 binaries, 0 generals, 0 SOSs, and 0 indicators.
Presolve time = 0,00 sec. (0,05 ticks)
Probing time = 0,00 sec. (0,00 ticks)
Tried aggregator 1 time.
Reduced MIP has 4 rows, 8 columns, and 14 nonzeros.
Reduced MIP has 8 binaries, 0 generals, 0 SOSs, and 0 indicators.
Presolve time = 0,00 sec. (0,01 ticks)
Probing time = 0,00 sec. (0,00 ticks)
Clique table members: 3.
MIP emphasis: balance optimality and feasibility.
MIP search method: dynamic search.
Parallel mode: none, using 1 thread.
Root relaxation solution time = 0,00 sec. (0,01 ticks)

        Nodes                                         Cuts/
   Node  Left     Objective  IInf  Best Integer    Best Bound    ItCnt     Gap

*     0+    0                          259,0000      349,0000            34,75%
*     0     0      integral     0      320,0000      320,0000        4    0,00%
Elapsed time = 0,00 sec. (4,22 ticks, tree = 0,00 MB, solutions = 3)

Root node processing (before b&c):
  Real time             =    0,00 sec. (4,23 ticks)
Sequential b&c:
  Real time             =    0,00 sec. (0,00 ticks)
                          ------------
Total (root+branch&cut) =    0,00 sec. (4,23 ticks)
